NAME : morphed22-5-28
COMMENT : Generated using the function morphInstances from the R-package netgen (Bossek,2015) - Number of clusters: 5 Alpha: 0.5
TYPE : TSP
DIMENSION : 22
EDGE_WEIGHT_TYPE : EUC_2D
NODE_COORD_SECTION
1 8.8046851541 80.4457183341
2 25.8057187464 10.663349785
3 51.0640667073 69.2048119955
4 86.8965038256 44.566856087
5 4.8671838193 39.8225099033
6 84.3353157198 28.5638875769
7 11.8679712317 4.0053752156
8 88.5662589719 15.2621500211
9 60.2628599084 92.5704321221
10 82.7472979284 71.6468346953
11 70.4119933324 93.3214087503
12 64.7473145851 91.288177025
13 62.4227453151 56.5259419102
14 78.1117147686 91.1441596776
15 51.8974648509 65.601854511
16 22.2845715379 48.290170577
17 32.4567292163 64.7800010568
18 68.6064592176 67.2672246984
19 98.3505737129 39.1797159525
20 47.3207048188 56.9802294629
21 31.7715070877 19.0403381597
22 26.3615424072 1.9351797034
EOF
